0001 4
0002 10
0003 6
0004 1
0005 8
0006 9
0007 9
0008 9
0009 9
0010 10
0011 13
0012 12
0013 13
0014 10
0015 12
0016 10
0017 1
0018 10
0019 6
0020 12
0021 1
0022 12
0023 10
0024 10
0025 10
0026 6
0027 1
0028 5
0029 4
0030 13
0031 9
0032 11
0033 13
0034 11
0035 13
0036 10
0037 11
0038 6
0039 6
0040 8
0041 6
0042 6
0043 8
0044 12
0045 8
0046 12
0047 10
0048 6
0049 10
0050 8
0051 11
0052 12
0053 7
0054 8
0055 12
0056 11
0057 13
0058 13
0059 6
0060 6
0061 8
0062 12
0063 6
0064 8
0065 12
0066 8
0067 12
0068 10
0069 5
0070 5
0071 1
0072 11
0073 12
0074 7
0075 7
0076 7
0077 11
0078 12
0079 10
0080 11
0081 10
0082 11
0083 13
0084 12
0085 7
0086 8
0087 10
0088 8
0089 8
0090 10
0091 6
0092 8
0093 6
0094 6
0095 2
0096 12
0097 2
0098 13
0099 13
0100 12
0101 13
0102 13
0103 2
0104 2
0105 1
0106 2
0107 2
0108 2
0109 11
0110 11
0111 11
0112 12
0113 13
0114 8
0115 9
0116 12
0117 8
0118 8
0119 8
0120 9
0121 12
0122 12
0123 10
0124 10
0125 10
0126 11
0127 6
0128 8
0129 8
0130 7
0131 4
0132 13
0133 4
0134 13
0135 4
0136 11
0137 13
0138 4
0139 4
